unknown
(model
; cardinality of BoundSet is 1
(declare-sort BoundSet 0)
; rep: @uc_BoundSet_0
(declare-sort UnboundSet 0)
(define-fun IsBlonde ((BOUND_VARIABLE_366 BoundSet)) Bool true)
(define-fun IsCrossedTheRoad ((BOUND_VARIABLE_366 BoundSet)) Bool true)
(define-fun IsThere ((BOUND_VARIABLE_366 BoundSet)) Bool false)
(define-fun IsShoeSale ((BOUND_VARIABLE_366 BoundSet)) Bool false)
)
sat
(model
; cardinality of BoundSet is 1
(declare-sort BoundSet 0)
; rep: @uc_BoundSet_0
(declare-sort UnboundSet 0)
(define-fun IsBlonde ((BOUND_VARIABLE_394 BoundSet)) Bool true)
(define-fun IsCrossedTheRoad ((BOUND_VARIABLE_394 BoundSet)) Bool true)
(define-fun IsThere ((BOUND_VARIABLE_394 BoundSet)) Bool false)
(define-fun IsShoeSale ((BOUND_VARIABLE_394 BoundSet)) Bool false)
)
